rcpsp/heur_output_log_0/heurj120.txt
encoding rcpsp/j120.sm/j12050_10.sm nv: 2721180 nc: 5655950 enctime: 58.34
encoding rcpsp/j120.sm/j12050_10.sm nv: 462396 nc: 956774 enctime: 6.19
c File: j12050_10.smnaiveor1000.wcnf
c optimal
c final solution cost: 103
c CPU time: 26.772612
s OPTIMUM FOUND

c File: j12050_10.smor1000.wcnf
c optimal
c final solution cost: 103
c CPU time: 3.217314
s OPTIMUM FOUND


rcpsp/heur_output_log_0/heurj120.txt
encoding rcpsp/j120.sm/j12050_1.sm nv: 3161644 nc: 6525727 enctime: 65.12
encoding rcpsp/j120.sm/j12050_1.sm nv: 572693 nc: 1177708 enctime: 7.56
c File: j12050_1.smnaiveor1000.wcnf
c optimal
c final solution cost: 116
c CPU time: 13.059872
s OPTIMUM FOUND

c File: j12050_1.smor1000.wcnf
c optimal
c final solution cost: 116
c CPU time: 1.571447
s OPTIMUM FOUND


rcpsp/heur_output_log_0/heurj120.txt
encoding rcpsp/j120.sm/j12050_2.sm nv: 2600596 nc: 5476127 enctime: 60.72
encoding rcpsp/j120.sm/j12050_2.sm nv: 438262 nc: 918032 enctime: 6.32
c File: j12050_2.smnaiveor1000.wcnf
c optimal
c final solution cost: 112
c CPU time: 40.760404
s OPTIMUM FOUND

c File: j12050_2.smor1000.wcnf
c optimal
c final solution cost: 112
c CPU time: 57.827935
s OPTIMUM FOUND


rcpsp/heur_output_log_0/heurj120.txt
encoding rcpsp/j120.sm/j12050_3.sm nv: 2500632 nc: 5204148 enctime: 54.41
encoding rcpsp/j120.sm/j12050_3.sm nv: 443785 nc: 919361 enctime: 6.24
c File: j12050_3.smnaiveor1000.wcnf
c optimal
c final solution cost: 111
c CPU time: 11.042894
s OPTIMUM FOUND

c File: j12050_3.smor1000.wcnf
c optimal
c final solution cost: 111
c CPU time: 1.415441
s OPTIMUM FOUND


rcpsp/heur_output_log_0/heurj120.txt
encoding rcpsp/j120.sm/j12050_4.sm nv: 2930316 nc: 6086305 enctime: 62.48
encoding rcpsp/j120.sm/j12050_4.sm nv: 471098 nc: 973840 enctime: 6.37
c File: j12050_4.smnaiveor1000.wcnf
c timeout
c final solution cost: 101
c CPU time: 68.366560
s UNKNOWN

c File: j12050_4.smor1000.wcnf
c timeout
c final solution cost: 100
c CPU time: 60.752476
s UNKNOWN


rcpsp/heur_output_log_0/heurj120.txt
encoding rcpsp/j120.sm/j12050_5.sm nv: 2372584 nc: 4926088 enctime: 51.12
encoding rcpsp/j120.sm/j12050_5.sm nv: 411802 nc: 850900 enctime: 5.55
c File: j12050_5.smnaiveor1000.wcnf
c optimal
c final solution cost: 100
c CPU time: 20.903437
s OPTIMUM FOUND

c File: j12050_5.smor1000.wcnf
c optimal
c final solution cost: 100
c CPU time: 2.638061
s OPTIMUM FOUND


rcpsp/heur_output_log_0/heurj120.txt
encoding rcpsp/j120.sm/j12050_6.sm nv: 2905632 nc: 6005094 enctime: 61.21
encoding rcpsp/j120.sm/j12050_6.sm nv: 461852 nc: 950219 enctime: 6.45
c File: j12050_6.smnaiveor1000.wcnf
c optimal
c final solution cost: 102
c CPU time: 22.413298
s OPTIMUM FOUND

c File: j12050_6.smor1000.wcnf
c optimal
c final solution cost: 102
c CPU time: 0.972979
s OPTIMUM FOUND


rcpsp/heur_output_log_0/heurj120.txt
encoding rcpsp/j120.sm/j12050_7.sm nv: 2775760 nc: 5779268 enctime: 61.28
encoding rcpsp/j120.sm/j12050_7.sm nv: 583726 nc: 1211009 enctime: 7.99
c File: j12050_7.smnaiveor1000.wcnf
c optimal
c final solution cost: 137
c CPU time: 11.227358
s OPTIMUM FOUND

c File: j12050_7.smor1000.wcnf
c optimal
c final solution cost: 137
c CPU time: 1.829408
s OPTIMUM FOUND


rcpsp/heur_output_log_0/heurj120.txt
encoding rcpsp/j120.sm/j12050_8.sm nv: 3440502 nc: 7118651 enctime: 71.54
encoding rcpsp/j120.sm/j12050_8.sm nv: 568516 nc: 1171337 enctime: 7.91
c File: j12050_8.smnaiveor1000.wcnf
c optimal
c final solution cost: 112
c CPU time: 14.815879
s OPTIMUM FOUND

c File: j12050_8.smor1000.wcnf
c optimal
c final solution cost: 112
c CPU time: 1.655035
s OPTIMUM FOUND


rcpsp/heur_output_log_0/heurj120.txt
encoding rcpsp/j120.sm/j12050_9.sm nv: 2890992 nc: 5974365 enctime: 60.98
encoding rcpsp/j120.sm/j12050_9.sm nv: 462735 nc: 952000 enctime: 6.54
c File: j12050_9.smnaiveor1000.wcnf
c optimal
c final solution cost: 101
c CPU time: 10.518003
s OPTIMUM FOUND

c File: j12050_9.smor1000.wcnf
c optimal
c final solution cost: 101
c CPU time: 1.236927
s OPTIMUM FOUND


rcpsp/heur_output_log_0/heurj120.txt
encoding rcpsp/j120.sm/j1205_10.sm nv: 1190640 nc: 2557212 enctime: 29.51
encoding rcpsp/j120.sm/j1205_10.sm nv: 171380 nc: 363882 enctime: 2.57
c File: j1205_10.smnaiveor1000.wcnf
c optimal
c final solution cost: 92
c CPU time: 6.189336
s OPTIMUM FOUND

c File: j1205_10.smor1000.wcnf
c optimal
c final solution cost: 92
c CPU time: 0.488053
s OPTIMUM FOUND


rcpsp/heur_output_log_0/heurj120.txt
encoding rcpsp/j120.sm/j12051_10.sm nv: 2393586 nc: 5057286 enctime: 55.05
encoding rcpsp/j120.sm/j12051_10.sm nv: 944928 nc: 1993170 enctime: 14.50
c File: j12051_10.smnaiveor1000.wcnf
c timeout
c final solution cost: 270
c CPU time: 68.155772
s UNKNOWN

c File: j12051_10.smor1000.wcnf
c timeout
c CPU time: 61.768867
s UNKNOWN


rcpsp/heur_output_log_0/heurj120.txt
encoding rcpsp/j120.sm/j12051_1.sm nv: 2372470 nc: 4994088 enctime: 54.45
encoding rcpsp/j120.sm/j12051_1.sm nv: 913578 nc: 1919744 enctime: 12.22
c File: j12051_1.smnaiveor1000.wcnf
c timeout
c final solution cost: 496
c CPU time: 67.777737
s UNKNOWN

c File: j12051_1.smor1000.wcnf
c timeout
c final solution cost: 235
c CPU time: 61.930931
s UNKNOWN


rcpsp/heur_output_log_0/heurj120.txt
encoding rcpsp/j120.sm/j12051_2.sm nv: 1925070 nc: 4051781 enctime: 43.64
encoding rcpsp/j120.sm/j12051_2.sm nv: 775635 nc: 1629665 enctime: 11.92
c File: j12051_2.smnaiveor1000.wcnf
c timeout
c final solution cost: 344
c CPU time: 66.441820
s UNKNOWN

c File: j12051_2.smor1000.wcnf
c timeout
c CPU time: 61.467121
s UNKNOWN


rcpsp/heur_output_log_0/heurj120.txt
encoding rcpsp/j120.sm/j12051_3.sm nv: 2225356 nc: 4689679 enctime: 50.94
encoding rcpsp/j120.sm/j12051_3.sm nv: 875938 nc: 1842814 enctime: 13.27
c File: j12051_3.smnaiveor1000.wcnf
c timeout
c final solution cost: 409
c CPU time: 67.496441
s UNKNOWN

c File: j12051_3.smor1000.wcnf
c timeout
c CPU time: 61.636876
s UNKNOWN


rcpsp/heur_output_log_0/heurj120.txt
encoding rcpsp/j120.sm/j12051_4.sm nv: 2338422 nc: 4935701 enctime: 53.54
encoding rcpsp/j120.sm/j12051_4.sm nv: 865699 nc: 1823725 enctime: 13.47
c File: j12051_4.smnaiveor1000.wcnf
c timeout
c final solution cost: 470
c CPU time: 67.988110
s UNKNOWN

c File: j12051_4.smor1000.wcnf
c timeout
c CPU time: 61.574496
s UNKNOWN


rcpsp/heur_output_log_0/heurj120.txt
encoding rcpsp/j120.sm/j12051_5.sm nv: 2201060 nc: 4642770 enctime: 51.75
encoding rcpsp/j120.sm/j12051_5.sm nv: 928520 nc: 1955577 enctime: 14.15
c File: j12051_5.smnaiveor1000.wcnf
c timeout
c final solution cost: 466
c CPU time: 67.446217
s UNKNOWN

c File: j12051_5.smor1000.wcnf
c timeout
c CPU time: 61.776575
s UNKNOWN


rcpsp/heur_output_log_0/heurj120.txt
encoding rcpsp/j120.sm/j12051_6.sm nv: 2229486 nc: 4692509 enctime: 50.81
encoding rcpsp/j120.sm/j12051_6.sm nv: 893158 nc: 1876773 enctime: 13.35
c File: j12051_6.smnaiveor1000.wcnf
c timeout
c final solution cost: 439
c CPU time: 67.365985
s UNKNOWN

c File: j12051_6.smor1000.wcnf
c timeout
c final solution cost: 251
c CPU time: 61.951368
s UNKNOWN


rcpsp/heur_output_log_0/heurj120.txt
encoding rcpsp/j120.sm/j12051_7.sm nv: 2096496 nc: 4395150 enctime: 45.35
encoding rcpsp/j120.sm/j12051_7.sm nv: 877760 nc: 1837465 enctime: 12.83
c File: j12051_7.smnaiveor1000.wcnf
c timeout
c final solution cost: 274
c CPU time: 66.790792
s UNKNOWN

c File: j12051_7.smor1000.wcnf
c timeout
c final solution cost: 244
c CPU time: 61.981834
s UNKNOWN


rcpsp/heur_output_log_0/heurj120.txt
encoding rcpsp/j120.sm/j12051_8.sm nv: 2107540 nc: 4427121 enctime: 50.10
encoding rcpsp/j120.sm/j12051_8.sm nv: 821640 nc: 1722881 enctime: 11.39
c File: j12051_8.smnaiveor1000.wcnf
c timeout
c final solution cost: 246
c CPU time: 67.132357
s UNKNOWN

c File: j12051_8.smor1000.wcnf
c timeout
c final solution cost: 237
c CPU time: 61.844152
s UNKNOWN


rcpsp/heur_output_log_0/heurj120.txt
encoding rcpsp/j120.sm/j12051_9.sm nv: 2195560 nc: 4626277 enctime: 51.39
encoding rcpsp/j120.sm/j12051_9.sm nv: 871520 nc: 1833232 enctime: 13.75
c File: j12051_9.smnaiveor1000.wcnf
c timeout
c final solution cost: 255
c CPU time: 67.674514
s UNKNOWN

c File: j12051_9.smor1000.wcnf
c timeout
c final solution cost: 240
c CPU time: 61.952264
s UNKNOWN


rcpsp/heur_output_log_0/heurj120.txt
encoding rcpsp/j120.sm/j1205_1.sm nv: 976302 nc: 2131022 enctime: 27.34
encoding rcpsp/j120.sm/j1205_1.sm nv: 138198 nc: 297458 enctime: 1.44
c File: j1205_1.smnaiveor1000.wcnf
c optimal
c final solution cost: 92
c CPU time: 6.162412
s OPTIMUM FOUND

c File: j1205_1.smor1000.wcnf
c optimal
c final solution cost: 92
c CPU time: 0.364528
s OPTIMUM FOUND


rcpsp/heur_output_log_0/heurj120.txt
encoding rcpsp/j120.sm/j12052_10.sm nv: 3070845 nc: 6352671 enctime: 64.09
encoding rcpsp/j120.sm/j12052_10.sm nv: 833175 nc: 1719881 enctime: 13.23
c File: j12052_10.smnaiveor1000.wcnf
c timeout
c final solution cost: 435
c CPU time: 68.828346
s UNKNOWN

c File: j12052_10.smor1000.wcnf
c timeout
c final solution cost: 172
c CPU time: 61.521226
s UNKNOWN


rcpsp/heur_output_log_0/heurj120.txt
encoding rcpsp/j120.sm/j12052_1.sm nv: 2448380 nc: 5092385 enctime: 53.81
encoding rcpsp/j120.sm/j12052_1.sm nv: 813494 nc: 1688891 enctime: 12.39
c File: j12052_1.smnaiveor1000.wcnf
c timeout
c final solution cost: 207
c CPU time: 67.310724
s UNKNOWN

c File: j12052_1.smor1000.wcnf
c timeout
c CPU time: 61.363608
s UNKNOWN


rcpsp/heur_output_log_0/heurj120.txt
encoding rcpsp/j120.sm/j12052_2.sm nv: 2734374 nc: 5694588 enctime: 60.22
encoding rcpsp/j120.sm/j12052_2.sm nv: 861286 nc: 1790268 enctime: 13.39
c File: j12052_2.smnaiveor1000.wcnf
c timeout
c final solution cost: 293
c CPU time: 68.530027
s UNKNOWN

c File: j12052_2.smor1000.wcnf
c timeout
c CPU time: 61.423671
s UNKNOWN


rcpsp/heur_output_log_0/heurj120.txt
encoding rcpsp/j120.sm/j12052_3.sm nv: 2968800 nc: 6106453 enctime: 58.83
encoding rcpsp/j120.sm/j12052_3.sm nv: 752096 nc: 1543573 enctime: 11.36
c File: j12052_3.smnaiveor1000.wcnf
c timeout
c final solution cost: 181
c CPU time: 67.960717
s UNKNOWN

c File: j12052_3.smor1000.wcnf
c timeout
c CPU time: 61.120017
s UNKNOWN


rcpsp/heur_output_log_0/heurj120.txt
encoding rcpsp/j120.sm/j12052_4.sm nv: 3032488 nc: 6294121 enctime: 66.10
encoding rcpsp/j120.sm/j12052_4.sm nv: 885998 nc: 1835231 enctime: 11.96
c File: j12052_4.smnaiveor1000.wcnf
c timeout
c final solution cost: 400
c CPU time: 68.869769
s UNKNOWN

c File: j12052_4.smor1000.wcnf
c timeout
c CPU time: 61.383702
s UNKNOWN


rcpsp/heur_output_log_0/heurj120.txt
encoding rcpsp/j120.sm/j12052_5.sm nv: 3032694 nc: 6313499 enctime: 67.01
encoding rcpsp/j120.sm/j12052_5.sm nv: 849870 nc: 1765339 enctime: 11.37
c File: j12052_5.smnaiveor1000.wcnf
c timeout
c final solution cost: 193
c CPU time: 69.127913
s UNKNOWN

c File: j12052_5.smor1000.wcnf
c timeout
c CPU time: 61.353529
s UNKNOWN


rcpsp/heur_output_log_0/heurj120.txt
encoding rcpsp/j120.sm/j12052_6.sm nv: 3246816 nc: 6814736 enctime: 75.38
encoding rcpsp/j120.sm/j12052_6.sm nv: 999356 nc: 2093216 enctime: 16.01
c File: j12052_6.smnaiveor1000.wcnf
c timeout
c final solution cost: 240
c CPU time: 71.076471
s UNKNOWN

c File: j12052_6.smor1000.wcnf
c timeout
c CPU time: 61.678088
s UNKNOWN


rcpsp/heur_output_log_0/heurj120.txt
encoding rcpsp/j120.sm/j12052_7.sm nv: 3230106 nc: 6680030 enctime: 69.05
encoding rcpsp/j120.sm/j12052_7.sm nv: 849508 nc: 1753026 enctime: 11.14
c File: j12052_7.smnaiveor1000.wcnf
c timeout
c final solution cost: 225
c CPU time: 69.302098
s UNKNOWN

c File: j12052_7.smor1000.wcnf
c timeout
c final solution cost: 163
c CPU time: 61.518077
s UNKNOWN


rcpsp/heur_output_log_0/heurj120.txt
encoding rcpsp/j120.sm/j12052_8.sm nv: 2904722 nc: 6007046 enctime: 62.09
encoding rcpsp/j120.sm/j12052_8.sm nv: 863566 nc: 1782410 enctime: 11.82
c File: j12052_8.smnaiveor1000.wcnf
c timeout
c final solution cost: 180
c CPU time: 68.330827
s UNKNOWN

c File: j12052_8.smor1000.wcnf
c timeout
c final solution cost: 177
c CPU time: 61.647003
s UNKNOWN


rcpsp/heur_output_log_0/heurj120.txt
encoding rcpsp/j120.sm/j12052_9.sm nv: 2938590 nc: 6061621 enctime: 62.54
encoding rcpsp/j120.sm/j12052_9.sm nv: 822615 nc: 1693501 enctime: 12.90
c File: j12052_9.smnaiveor1000.wcnf
c timeout
c final solution cost: 216
c CPU time: 68.069656
s UNKNOWN

c File: j12052_9.smor1000.wcnf
c timeout
c CPU time: 61.272692
s UNKNOWN


rcpsp/heur_output_log_0/heurj120.txt
encoding rcpsp/j120.sm/j1205_2.sm nv: 1232930 nc: 2671344 enctime: 32.82
encoding rcpsp/j120.sm/j1205_2.sm nv: 149016 nc: 318383 enctime: 1.53
c File: j1205_2.smnaiveor1000.wcnf
c optimal
c final solution cost: 80
c CPU time: 7.350515
s OPTIMUM FOUND

c File: j1205_2.smor1000.wcnf
c optimal
c final solution cost: 80
c CPU time: 0.453750
s OPTIMUM FOUND


rcpsp/heur_output_log_0/heurj120.txt
encoding rcpsp/j120.sm/j12053_10.sm nv: 3660222 nc: 7500991 enctime: 72.28
encoding rcpsp/j120.sm/j12053_10.sm nv: 882897 nc: 1805741 enctime: 13.53
c File: j12053_10.smnaiveor1000.wcnf
c timeout
c final solution cost: 208
c CPU time: 69.185158
s UNKNOWN

c File: j12053_10.smor1000.wcnf
c timeout
c final solution cost: 141
c CPU time: 61.522576
s UNKNOWN


rcpsp/heur_output_log_0/heurj120.txt
encoding rcpsp/j120.sm/j12053_1.sm nv: 3529812 nc: 7279895 enctime: 74.16
encoding rcpsp/j120.sm/j12053_1.sm nv: 878460 nc: 1807871 enctime: 11.80
c File: j12053_1.smnaiveor1000.wcnf
c timeout
c final solution cost: 177
c CPU time: 69.543554
s UNKNOWN

c File: j12053_1.smor1000.wcnf
c timeout
c final solution cost: 156
c CPU time: 61.550002
s UNKNOWN


rcpsp/heur_output_log_0/heurj120.txt
encoding rcpsp/j120.sm/j12053_2.sm nv: 4375700 nc: 8952290 enctime: 83.90
encoding rcpsp/j120.sm/j12053_2.sm nv: 857850 nc: 1751013 enctime: 11.11
c File: j12053_2.smnaiveor1000.wcnf
c timeout
c final solution cost: 125
c CPU time: 70.832968
s UNKNOWN

c File: j12053_2.smor1000.wcnf
c timeout
c final solution cost: 125
c CPU time: 61.421460
s UNKNOWN


rcpsp/heur_output_log_0/heurj120.txt
encoding rcpsp/j120.sm/j12053_3.sm nv: 3961386 nc: 8102311 enctime: 76.48
encoding rcpsp/j120.sm/j12053_3.sm nv: 796068 nc: 1624381 enctime: 10.62
c File: j12053_3.smnaiveor1000.wcnf
c timeout
c final solution cost: 120
c CPU time: 69.699574
s UNKNOWN

c File: j12053_3.smor1000.wcnf
c timeout
c final solution cost: 120
c CPU time: 61.329337
s UNKNOWN


rcpsp/heur_output_log_0/heurj120.txt
encoding rcpsp/j120.sm/j12053_4.sm nv: 3472810 nc: 7159863 enctime: 71.73
encoding rcpsp/j120.sm/j12053_4.sm nv: 858924 nc: 1766936 enctime: 11.28
c File: j12053_4.smnaiveor1000.wcnf
c timeout
c final solution cost: 159
c CPU time: 69.075818
s UNKNOWN

c File: j12053_4.smor1000.wcnf
c timeout
c final solution cost: 151
c CPU time: 61.484226
s UNKNOWN


rcpsp/heur_output_log_0/heurj120.txt
encoding rcpsp/j120.sm/j12053_5.sm nv: 4593969 nc: 9419414 enctime: 89.43
encoding rcpsp/j120.sm/j12053_5.sm nv: 842562 nc: 1723055 enctime: 13.92
c File: j12053_5.smnaiveor1000.wcnf
c timeout
c final solution cost: 124
c CPU time: 71.462902
s UNKNOWN

c File: j12053_5.smor1000.wcnf
c timeout
c final solution cost: 118
c CPU time: 61.398413
s UNKNOWN


rcpsp/heur_output_log_0/heurj120.txt
encoding rcpsp/j120.sm/j12053_6.sm nv: 3411639 nc: 6952848 enctime: 64.15
encoding rcpsp/j120.sm/j12053_6.sm nv: 722040 nc: 1468158 enctime: 10.09
c File: j12053_6.smnaiveor1000.wcnf
c timeout
c final solution cost: 115
c CPU time: 67.973888
s UNKNOWN

c File: j12053_6.smor1000.wcnf
c timeout
c final solution cost: 116
c CPU time: 61.202616
s UNKNOWN


